(set-logic HORN)
(set-info :source |
    Benchmark: C_VC
    Output by Princess (http://www.philipp.ruemmer.org/princess.shtml)
|)
(set-info :status unknown)
(declare-fun inv_main13 (Int Int Int Int Int Int Int Int) Bool)
(declare-fun inv_main26 (Int Int Int Int Int Int Int Int) Bool)
(declare-fun inv_main6 (Int Int Int Int Int Int Int Int) Bool)
(assert (forall ((var0 Int)) (forall ((var1 Int)) (forall ((var2 Int)) (forall ((var3 Int)) (forall ((var4 Int)) (inv_main6 0 4000 2000 var0 var3 var1 var4 var2 ) ) ) ) ) ) )
(assert (forall ((var0 Int)) (forall ((var1 Int)) (forall ((var2 Int)) (forall ((var3 Int)) (forall ((var4 Int)) (forall ((var5 Int)) (forall ((var6 Int)) (forall ((var7 Int)) (forall ((var8 Int)) (or (not (and (inv_main6 var6 var4 var3 var1 var0 var2 var5 var8 ) (and (<= 0 (+ (+ 10 (* (- 1) var7 ) ) (- 1) ) ) (<= 0 (+ var7 (- 1) ) ) ) ) ) (inv_main13 var6 var4 var3 var7 var0 0 0 var8 ) ) ) ) ) ) ) ) ) ) ) )
(assert (forall ((var0 Int)) (forall ((var1 Int)) (forall ((var2 Int)) (forall ((var3 Int)) (forall ((var4 Int)) (forall ((var5 Int)) (forall ((var6 Int)) (forall ((var7 Int)) (or (not (and (inv_main13 var6 var4 var3 var1 var0 var2 var5 var7 ) (and (not (<= 0 (+ (+ var5 (* (- 1) var1 ) ) (- 1) ) ) ) (not (<= 0 (+ (+ var1 (* (- 1) var2 ) ) (- 1) ) ) ) ) ) ) (inv_main26 var6 var4 var3 var1 var0 var2 var5 var7 ) ) ) ) ) ) ) ) ) ) )
(assert (forall ((var0 Int)) (forall ((var1 Int)) (forall ((var2 Int)) (forall ((var3 Int)) (forall ((var4 Int)) (forall ((var5 Int)) (forall ((var6 Int)) (forall ((var7 Int)) (or (not (and (inv_main13 var6 var4 var3 var1 var0 var2 var5 var7 ) (and (= var6 0 ) (<= 0 (+ (+ var1 (* (- 1) var2 ) ) (- 1) ) ) ) ) ) (inv_main13 var6 var4 var3 var1 0 (+ var2 1 ) (+ var5 var4 ) var7 ) ) ) ) ) ) ) ) ) ) )
(assert (forall ((var0 Int)) (forall ((var1 Int)) (forall ((var2 Int)) (forall ((var3 Int)) (forall ((var4 Int)) (forall ((var5 Int)) (forall ((var6 Int)) (forall ((var7 Int)) (or (not (and (inv_main13 var6 var4 var3 var1 var0 var2 var5 var7 ) (and (not (= var6 0 ) ) (<= 0 (+ (+ var1 (* (- 1) var2 ) ) (- 1) ) ) ) ) ) (inv_main13 var6 var4 var3 var1 1 (+ var2 1 ) (+ var5 var3 ) var7 ) ) ) ) ) ) ) ) ) ) )
(assert (forall ((var0 Int)) (forall ((var1 Int)) (forall ((var2 Int)) (forall ((var3 Int)) (forall ((var4 Int)) (forall ((var5 Int)) (forall ((var6 Int)) (forall ((var7 Int)) (not (inv_main26 var6 var4 var3 var1 var0 var2 var5 var7 ) ) ) ) ) ) ) ) ) ) )
(check-sat)
